logs/drand/ip/drand-07-110-1.lp
\ LP format - for model browsing. Use MPS format to capture full model detail.
Minimize
  z0 + z1 + z2 + z3 + z4 + z5 + z6 + z7
Subject To
 R0: x0,1_11 + x0,1_50 + x0,1_53 + x0,1_59 + x0,1_65 + x0,1_69 + x0,1_81
   - z1 <= 0
 R1: x0,2_11 + x0,2_50 + x0,2_53 + x0,2_59 + x0,2_65 + x0,2_69 + x0,2_81
   - z2 <= 0
 R2: x0,3_11 + x0,3_50 + x0,3_53 + x0,3_59 + x0,3_65 + x0,3_69 + x0,3_81
   - z3 <= 0
 R3: x0,4_11 + x0,4_50 + x0,4_53 + x0,4_59 + x0,4_65 + x0,4_69 + x0,4_81
   - z4 <= 0
 R4: x0,5_11 + x0,5_50 + x0,5_53 + x0,5_59 + x0,5_65 + x0,5_69 + x0,5_81
   - z5 <= 0
 R5: x0,6_11 + x0,6_50 + x0,6_53 + x0,6_59 + x0,6_65 + x0,6_69 + x0,6_81
   - z6 <= 0
 R6: x0,7_11 + x0,7_50 + x0,7_53 + x0,7_59 + x0,7_65 + x0,7_69 + x0,7_81
   - z7 <= 0
 R7: x1,2_11 + x1,2_50 + x1,2_53 + x1,2_59 + x1,2_65 + x1,2_69 + x1,2_81
   - z2 <= 0
 R8: x1,3_11 + x1,3_50 + x1,3_53 + x1,3_59 + x1,3_65 + x1,3_69 + x1,3_81
   - z3 <= 0
 R9: x1,4_11 + x1,4_50 + x1,4_53 + x1,4_59 + x1,4_65 + x1,4_69 + x1,4_81
   - z4 <= 0
 R10: x1,5_11 + x1,5_50 + x1,5_53 + x1,5_59 + x1,5_65 + x1,5_69 + x1,5_81
   - z5 <= 0
 R11: x1,6_11 + x1,6_50 + x1,6_53 + x1,6_59 + x1,6_65 + x1,6_69 + x1,6_81
   - z6 <= 0
 R12: x1,7_11 + x1,7_50 + x1,7_53 + x1,7_59 + x1,7_65 + x1,7_69 + x1,7_81
   - z7 <= 0
 R13: x2,3_11 + x2,3_50 + x2,3_53 + x2,3_59 + x2,3_65 + x2,3_69 + x2,3_81
   - z3 <= 0
 R14: x2,4_11 + x2,4_50 + x2,4_53 + x2,4_59 + x2,4_65 + x2,4_69 + x2,4_81
   - z4 <= 0
 R15: x2,5_11 + x2,5_50 + x2,5_53 + x2,5_59 + x2,5_65 + x2,5_69 + x2,5_81
   - z5 <= 0
 R16: x2,6_11 + x2,6_50 + x2,6_53 + x2,6_59 + x2,6_65 + x2,6_69 + x2,6_81
   - z6 <= 0
 R17: x2,7_11 + x2,7_50 + x2,7_53 + x2,7_59 + x2,7_65 + x2,7_69 + x2,7_81
   - z7 <= 0
 R18: x3,4_11 + x3,4_50 + x3,4_53 + x3,4_59 + x3,4_65 + x3,4_69 + x3,4_81
   - z4 <= 0
 R19: x3,5_11 + x3,5_50 + x3,5_53 + x3,5_59 + x3,5_65 + x3,5_69 + x3,5_81
   - z5 <= 0
 R20: x3,6_11 + x3,6_50 + x3,6_53 + x3,6_59 + x3,6_65 + x3,6_69 + x3,6_81
   - z6 <= 0
 R21: x3,7_11 + x3,7_50 + x3,7_53 + x3,7_59 + x3,7_65 + x3,7_69 + x3,7_81
   - z7 <= 0
 R22: x4,5_11 + x4,5_50 + x4,5_53 + x4,5_59 + x4,5_65 + x4,5_69 + x4,5_81
   - z5 <= 0
 R23: x4,6_11 + x4,6_50 + x4,6_53 + x4,6_59 + x4,6_65 + x4,6_69 + x4,6_81
   - z6 <= 0
 R24: x4,7_11 + x4,7_50 + x4,7_53 + x4,7_59 + x4,7_65 + x4,7_69 + x4,7_81
   - z7 <= 0
 R25: x5,6_11 + x5,6_50 + x5,6_53 + x5,6_59 + x5,6_65 + x5,6_69 + x5,6_81
   - z6 <= 0
 R26: x5,7_11 + x5,7_50 + x5,7_53 + x5,7_59 + x5,7_65 + x5,7_69 + x5,7_81
   - z7 <= 0
 R27: x6,7_11 + x6,7_50 + x6,7_53 + x6,7_59 + x6,7_65 + x6,7_69 + x6,7_81
   - z7 <= 0
 R28: x0,1_11 + x0,2_11 + x0,3_11 + x0,4_11 + x0,5_11 + x0,6_11 + x0,7_11
   + x1,2_11 + x1,3_11 + x1,4_11 + x1,5_11 + x1,6_11 + x1,7_11 + x2,3_11
   + x2,4_11 + x2,5_11 + x2,6_11 + x2,7_11 + x3,4_11 + x3,5_11 + x3,6_11
   + x3,7_11 + x4,5_11 + x4,6_11 + x4,7_11 + x5,6_11 + x5,7_11 + x6,7_11
   = 1
 R29: x0,1_50 + x0,2_50 + x0,3_50 + x0,4_50 + x0,5_50 + x0,6_50 + x0,7_50
   + x1,2_50 + x1,3_50 + x1,4_50 + x1,5_50 + x1,6_50 + x1,7_50 + x2,3_50
   + x2,4_50 + x2,5_50 + x2,6_50 + x2,7_50 + x3,4_50 + x3,5_50 + x3,6_50
   + x3,7_50 + x4,5_50 + x4,6_50 + x4,7_50 + x5,6_50 + x5,7_50 + x6,7_50
   = 1
 R30: x0,1_53 + x0,2_53 + x0,3_53 + x0,4_53 + x0,5_53 + x0,6_53 + x0,7_53
   + x1,2_53 + x1,3_53 + x1,4_53 + x1,5_53 + x1,6_53 + x1,7_53 + x2,3_53
   + x2,4_53 + x2,5_53 + x2,6_53 + x2,7_53 + x3,4_53 + x3,5_53 + x3,6_53
   + x3,7_53 + x4,5_53 + x4,6_53 + x4,7_53 + x5,6_53 + x5,7_53 + x6,7_53
   = 1
 R31: x0,1_59 + x0,2_59 + x0,3_59 + x0,4_59 + x0,5_59 + x0,6_59 + x0,7_59
   + x1,2_59 + x1,3_59 + x1,4_59 + x1,5_59 + x1,6_59 + x1,7_59 + x2,3_59
   + x2,4_59 + x2,5_59 + x2,6_59 + x2,7_59 + x3,4_59 + x3,5_59 + x3,6_59
   + x3,7_59 + x4,5_59 + x4,6_59 + x4,7_59 + x5,6_59 + x5,7_59 + x6,7_59
   = 1
 R32: x0,1_65 + x0,2_65 + x0,3_65 + x0,4_65 + x0,5_65 + x0,6_65 + x0,7_65
   + x1,2_65 + x1,3_65 + x1,4_65 + x1,5_65 + x1,6_65 + x1,7_65 + x2,3_65
   + x2,4_65 + x2,5_65 + x2,6_65 + x2,7_65 + x3,4_65 + x3,5_65 + x3,6_65
   + x3,7_65 + x4,5_65 + x4,6_65 + x4,7_65 + x5,6_65 + x5,7_65 + x6,7_65
   = 1
 R33: x0,1_69 + x0,2_69 + x0,3_69 + x0,4_69 + x0,5_69 + x0,6_69 + x0,7_69
   + x1,2_69 + x1,3_69 + x1,4_69 + x1,5_69 + x1,6_69 + x1,7_69 + x2,3_69
   + x2,4_69 + x2,5_69 + x2,6_69 + x2,7_69 + x3,4_69 + x3,5_69 + x3,6_69
   + x3,7_69 + x4,5_69 + x4,6_69 + x4,7_69 + x5,6_69 + x5,7_69 + x6,7_69
   = 1
 R34: x0,1_81 + x0,2_81 + x0,3_81 + x0,4_81 + x0,5_81 + x0,6_81 + x0,7_81
   + x1,2_81 + x1,3_81 + x1,4_81 + x1,5_81 + x1,6_81 + x1,7_81 + x2,3_81
   + x2,4_81 + x2,5_81 + x2,6_81 + x2,7_81 + x3,4_81 + x3,5_81 + x3,6_81
   + x3,7_81 + x4,5_81 + x4,6_81 + x4,7_81 + x5,6_81 + x5,7_81 + x6,7_81
   = 1
 R35: p0 - p1 <= -1
 R36: - 11 x0,1_11 - p0 + p1 >= 0
 R37: 388 x0,1_11 - p0 + p1 <= 399
 R38: - 50 x0,1_50 - p0 + p1 >= 0
 R39: 388 x0,1_50 - p0 + p1 <= 438
 R40: - 53 x0,1_53 - p0 + p1 >= 0
 R41: 388 x0,1_53 - p0 + p1 <= 441
 R42: - 59 x0,1_59 - p0 + p1 >= 0
 R43: 388 x0,1_59 - p0 + p1 <= 447
 R44: - 65 x0,1_65 - p0 + p1 >= 0
 R45: 388 x0,1_65 - p0 + p1 <= 453
 R46: - 69 x0,1_69 - p0 + p1 >= 0
 R47: 388 x0,1_69 - p0 + p1 <= 457
 R48: - 81 x0,1_81 - p0 + p1 >= 0
 R49: 388 x0,1_81 - p0 + p1 <= 469
 R50: p0 - p2 <= -1
 R51: - 11 x0,2_11 - p0 + p2 >= 0
 R52: 388 x0,2_11 - p0 + p2 <= 399
 R53: - 50 x0,2_50 - p0 + p2 >= 0
 R54: 388 x0,2_50 - p0 + p2 <= 438
 R55: - 53 x0,2_53 - p0 + p2 >= 0
 R56: 388 x0,2_53 - p0 + p2 <= 441
 R57: - 59 x0,2_59 - p0 + p2 >= 0
 R58: 388 x0,2_59 - p0 + p2 <= 447
 R59: - 65 x0,2_65 - p0 + p2 >= 0
 R60: 388 x0,2_65 - p0 + p2 <= 453
 R61: - 69 x0,2_69 - p0 + p2 >= 0
 R62: 388 x0,2_69 - p0 + p2 <= 457
 R63: - 81 x0,2_81 - p0 + p2 >= 0
 R64: 388 x0,2_81 - p0 + p2 <= 469
 R65: p0 - p3 <= -1
 R66: - 11 x0,3_11 - p0 + p3 >= 0
 R67: 388 x0,3_11 - p0 + p3 <= 399
 R68: - 50 x0,3_50 - p0 + p3 >= 0
 R69: 388 x0,3_50 - p0 + p3 <= 438
 R70: - 53 x0,3_53 - p0 + p3 >= 0
 R71: 388 x0,3_53 - p0 + p3 <= 441
 R72: - 59 x0,3_59 - p0 + p3 >= 0
 R73: 388 x0,3_59 - p0 + p3 <= 447
 R74: - 65 x0,3_65 - p0 + p3 >= 0
 R75: 388 x0,3_65 - p0 + p3 <= 453
 R76: - 69 x0,3_69 - p0 + p3 >= 0
 R77: 388 x0,3_69 - p0 + p3 <= 457
 R78: - 81 x0,3_81 - p0 + p3 >= 0
 R79: 388 x0,3_81 - p0 + p3 <= 469
 R80: p0 - p4 <= -1
 R81: - 11 x0,4_11 - p0 + p4 >= 0
 R82: 388 x0,4_11 - p0 + p4 <= 399
 R83: - 50 x0,4_50 - p0 + p4 >= 0
 R84: 388 x0,4_50 - p0 + p4 <= 438
 R85: - 53 x0,4_53 - p0 + p4 >= 0
 R86: 388 x0,4_53 - p0 + p4 <= 441
 R87: - 59 x0,4_59 - p0 + p4 >= 0
 R88: 388 x0,4_59 - p0 + p4 <= 447
 R89: - 65 x0,4_65 - p0 + p4 >= 0
 R90: 388 x0,4_65 - p0 + p4 <= 453
 R91: - 69 x0,4_69 - p0 + p4 >= 0
 R92: 388 x0,4_69 - p0 + p4 <= 457
 R93: - 81 x0,4_81 - p0 + p4 >= 0
 R94: 388 x0,4_81 - p0 + p4 <= 469
 R95: p0 - p5 <= -1
 R96: - 11 x0,5_11 - p0 + p5 >= 0
 R97: 388 x0,5_11 - p0 + p5 <= 399
 R98: - 50 x0,5_50 - p0 + p5 >= 0
 R99: 388 x0,5_50 - p0 + p5 <= 438
 R100: - 53 x0,5_53 - p0 + p5 >= 0
 R101: 388 x0,5_53 - p0 + p5 <= 441
 R102: - 59 x0,5_59 - p0 + p5 >= 0
 R103: 388 x0,5_59 - p0 + p5 <= 447
 R104: - 65 x0,5_65 - p0 + p5 >= 0
 R105: 388 x0,5_65 - p0 + p5 <= 453
 R106: - 69 x0,5_69 - p0 + p5 >= 0
 R107: 388 x0,5_69 - p0 + p5 <= 457
 R108: - 81 x0,5_81 - p0 + p5 >= 0
 R109: 388 x0,5_81 - p0 + p5 <= 469
 R110: p0 - p6 <= -1
 R111: - 11 x0,6_11 - p0 + p6 >= 0
 R112: 388 x0,6_11 - p0 + p6 <= 399
 R113: - 50 x0,6_50 - p0 + p6 >= 0
 R114: 388 x0,6_50 - p0 + p6 <= 438
 R115: - 53 x0,6_53 - p0 + p6 >= 0
 R116: 388 x0,6_53 - p0 + p6 <= 441
 R117: - 59 x0,6_59 - p0 + p6 >= 0
 R118: 388 x0,6_59 - p0 + p6 <= 447
 R119: - 65 x0,6_65 - p0 + p6 >= 0
 R120: 388 x0,6_65 - p0 + p6 <= 453
 R121: - 69 x0,6_69 - p0 + p6 >= 0
 R122: 388 x0,6_69 - p0 + p6 <= 457
 R123: - 81 x0,6_81 - p0 + p6 >= 0
 R124: 388 x0,6_81 - p0 + p6 <= 469
 R125: p0 - p7 <= -1
 R126: - 11 x0,7_11 - p0 + p7 >= 0
 R127: 388 x0,7_11 - p0 + p7 <= 399
 R128: - 50 x0,7_50 - p0 + p7 >= 0
 R129: 388 x0,7_50 - p0 + p7 <= 438
 R130: - 53 x0,7_53 - p0 + p7 >= 0
 R131: 388 x0,7_53 - p0 + p7 <= 441
 R132: - 59 x0,7_59 - p0 + p7 >= 0
 R133: 388 x0,7_59 - p0 + p7 <= 447
 R134: - 65 x0,7_65 - p0 + p7 >= 0
 R135: 388 x0,7_65 - p0 + p7 <= 453
 R136: - 69 x0,7_69 - p0 + p7 >= 0
 R137: 388 x0,7_69 - p0 + p7 <= 457
 R138: - 81 x0,7_81 - p0 + p7 >= 0
 R139: 388 x0,7_81 - p0 + p7 <= 469
 R140: p1 - p2 <= -1
 R141: - 11 x1,2_11 - p1 + p2 >= 0
 R142: 388 x1,2_11 - p1 + p2 <= 399
 R143: - 50 x1,2_50 - p1 + p2 >= 0
 R144: 388 x1,2_50 - p1 + p2 <= 438
 R145: - 53 x1,2_53 - p1 + p2 >= 0
 R146: 388 x1,2_53 - p1 + p2 <= 441
 R147: - 59 x1,2_59 - p1 + p2 >= 0
 R148: 388 x1,2_59 - p1 + p2 <= 447
 R149: - 65 x1,2_65 - p1 + p2 >= 0
 R150: 388 x1,2_65 - p1 + p2 <= 453
 R151: - 69 x1,2_69 - p1 + p2 >= 0
 R152: 388 x1,2_69 - p1 + p2 <= 457
 R153: - 81 x1,2_81 - p1 + p2 >= 0
 R154: 388 x1,2_81 - p1 + p2 <= 469
 R155: p1 - p3 <= -1
 R156: - 11 x1,3_11 - p1 + p3 >= 0
 R157: 388 x1,3_11 - p1 + p3 <= 399
 R158: - 50 x1,3_50 - p1 + p3 >= 0
 R159: 388 x1,3_50 - p1 + p3 <= 438
 R160: - 53 x1,3_53 - p1 + p3 >= 0
 R161: 388 x1,3_53 - p1 + p3 <= 441
 R162: - 59 x1,3_59 - p1 + p3 >= 0
 R163: 388 x1,3_59 - p1 + p3 <= 447
 R164: - 65 x1,3_65 - p1 + p3 >= 0
 R165: 388 x1,3_65 - p1 + p3 <= 453
 R166: - 69 x1,3_69 - p1 + p3 >= 0
 R167: 388 x1,3_69 - p1 + p3 <= 457
 R168: - 81 x1,3_81 - p1 + p3 >= 0
 R169: 388 x1,3_81 - p1 + p3 <= 469
 R170: p1 - p4 <= -1
 R171: - 11 x1,4_11 - p1 + p4 >= 0
 R172: 388 x1,4_11 - p1 + p4 <= 399
 R173: - 50 x1,4_50 - p1 + p4 >= 0
 R174: 388 x1,4_50 - p1 + p4 <= 438
 R175: - 53 x1,4_53 - p1 + p4 >= 0
 R176: 388 x1,4_53 - p1 + p4 <= 441
 R177: - 59 x1,4_59 - p1 + p4 >= 0
 R178: 388 x1,4_59 - p1 + p4 <= 447
 R179: - 65 x1,4_65 - p1 + p4 >= 0
 R180: 388 x1,4_65 - p1 + p4 <= 453
 R181: - 69 x1,4_69 - p1 + p4 >= 0
 R182: 388 x1,4_69 - p1 + p4 <= 457
 R183: - 81 x1,4_81 - p1 + p4 >= 0
 R184: 388 x1,4_81 - p1 + p4 <= 469
 R185: p1 - p5 <= -1
 R186: - 11 x1,5_11 - p1 + p5 >= 0
 R187: 388 x1,5_11 - p1 + p5 <= 399
 R188: - 50 x1,5_50 - p1 + p5 >= 0
 R189: 388 x1,5_50 - p1 + p5 <= 438
 R190: - 53 x1,5_53 - p1 + p5 >= 0
 R191: 388 x1,5_53 - p1 + p5 <= 441
 R192: - 59 x1,5_59 - p1 + p5 >= 0
 R193: 388 x1,5_59 - p1 + p5 <= 447
 R194: - 65 x1,5_65 - p1 + p5 >= 0
 R195: 388 x1,5_65 - p1 + p5 <= 453
 R196: - 69 x1,5_69 - p1 + p5 >= 0
 R197: 388 x1,5_69 - p1 + p5 <= 457
 R198: - 81 x1,5_81 - p1 + p5 >= 0
 R199: 388 x1,5_81 - p1 + p5 <= 469
 R200: p1 - p6 <= -1
 R201: - 11 x1,6_11 - p1 + p6 >= 0
 R202: 388 x1,6_11 - p1 + p6 <= 399
 R203: - 50 x1,6_50 - p1 + p6 >= 0
 R204: 388 x1,6_50 - p1 + p6 <= 438
 R205: - 53 x1,6_53 - p1 + p6 >= 0
 R206: 388 x1,6_53 - p1 + p6 <= 441
 R207: - 59 x1,6_59 - p1 + p6 >= 0
 R208: 388 x1,6_59 - p1 + p6 <= 447
 R209: - 65 x1,6_65 - p1 + p6 >= 0
 R210: 388 x1,6_65 - p1 + p6 <= 453
 R211: - 69 x1,6_69 - p1 + p6 >= 0
 R212: 388 x1,6_69 - p1 + p6 <= 457
 R213: - 81 x1,6_81 - p1 + p6 >= 0
 R214: 388 x1,6_81 - p1 + p6 <= 469
 R215: p1 - p7 <= -1
 R216: - 11 x1,7_11 - p1 + p7 >= 0
 R217: 388 x1,7_11 - p1 + p7 <= 399
 R218: - 50 x1,7_50 - p1 + p7 >= 0
 R219: 388 x1,7_50 - p1 + p7 <= 438
 R220: - 53 x1,7_53 - p1 + p7 >= 0
 R221: 388 x1,7_53 - p1 + p7 <= 441
 R222: - 59 x1,7_59 - p1 + p7 >= 0
 R223: 388 x1,7_59 - p1 + p7 <= 447
 R224: - 65 x1,7_65 - p1 + p7 >= 0
 R225: 388 x1,7_65 - p1 + p7 <= 453
 R226: - 69 x1,7_69 - p1 + p7 >= 0
 R227: 388 x1,7_69 - p1 + p7 <= 457
 R228: - 81 x1,7_81 - p1 + p7 >= 0
 R229: 388 x1,7_81 - p1 + p7 <= 469
 R230: p2 - p3 <= -1
 R231: - 11 x2,3_11 - p2 + p3 >= 0
 R232: 388 x2,3_11 - p2 + p3 <= 399
 R233: - 50 x2,3_50 - p2 + p3 >= 0
 R234: 388 x2,3_50 - p2 + p3 <= 438
 R235: - 53 x2,3_53 - p2 + p3 >= 0
 R236: 388 x2,3_53 - p2 + p3 <= 441
 R237: - 59 x2,3_59 - p2 + p3 >= 0
 R238: 388 x2,3_59 - p2 + p3 <= 447
 R239: - 65 x2,3_65 - p2 + p3 >= 0
 R240: 388 x2,3_65 - p2 + p3 <= 453
 R241: - 69 x2,3_69 - p2 + p3 >= 0
 R242: 388 x2,3_69 - p2 + p3 <= 457
 R243: - 81 x2,3_81 - p2 + p3 >= 0
 R244: 388 x2,3_81 - p2 + p3 <= 469
 R245: p2 - p4 <= -1
 R246: - 11 x2,4_11 - p2 + p4 >= 0
 R247: 388 x2,4_11 - p2 + p4 <= 399
 R248: - 50 x2,4_50 - p2 + p4 >= 0
 R249: 388 x2,4_50 - p2 + p4 <= 438
 R250: - 53 x2,4_53 - p2 + p4 >= 0
 R251: 388 x2,4_53 - p2 + p4 <= 441
 R252: - 59 x2,4_59 - p2 + p4 >= 0
 R253: 388 x2,4_59 - p2 + p4 <= 447
 R254: - 65 x2,4_65 - p2 + p4 >= 0
 R255: 388 x2,4_65 - p2 + p4 <= 453
 R256: - 69 x2,4_69 - p2 + p4 >= 0
 R257: 388 x2,4_69 - p2 + p4 <= 457
 R258: - 81 x2,4_81 - p2 + p4 >= 0
 R259: 388 x2,4_81 - p2 + p4 <= 469
 R260: p2 - p5 <= -1
 R261: - 11 x2,5_11 - p2 + p5 >= 0
 R262: 388 x2,5_11 - p2 + p5 <= 399
 R263: - 50 x2,5_50 - p2 + p5 >= 0
 R264: 388 x2,5_50 - p2 + p5 <= 438
 R265: - 53 x2,5_53 - p2 + p5 >= 0
 R266: 388 x2,5_53 - p2 + p5 <= 441
 R267: - 59 x2,5_59 - p2 + p5 >= 0
 R268: 388 x2,5_59 - p2 + p5 <= 447
 R269: - 65 x2,5_65 - p2 + p5 >= 0
 R270: 388 x2,5_65 - p2 + p5 <= 453
 R271: - 69 x2,5_69 - p2 + p5 >= 0
 R272: 388 x2,5_69 - p2 + p5 <= 457
 R273: - 81 x2,5_81 - p2 + p5 >= 0
 R274: 388 x2,5_81 - p2 + p5 <= 469
 R275: p2 - p6 <= -1
 R276: - 11 x2,6_11 - p2 + p6 >= 0
 R277: 388 x2,6_11 - p2 + p6 <= 399
 R278: - 50 x2,6_50 - p2 + p6 >= 0
 R279: 388 x2,6_50 - p2 + p6 <= 438
 R280: - 53 x2,6_53 - p2 + p6 >= 0
 R281: 388 x2,6_53 - p2 + p6 <= 441
 R282: - 59 x2,6_59 - p2 + p6 >= 0
 R283: 388 x2,6_59 - p2 + p6 <= 447
 R284: - 65 x2,6_65 - p2 + p6 >= 0
 R285: 388 x2,6_65 - p2 + p6 <= 453
 R286: - 69 x2,6_69 - p2 + p6 >= 0
 R287: 388 x2,6_69 - p2 + p6 <= 457
 R288: - 81 x2,6_81 - p2 + p6 >= 0
 R289: 388 x2,6_81 - p2 + p6 <= 469
 R290: p2 - p7 <= -1
 R291: - 11 x2,7_11 - p2 + p7 >= 0
 R292: 388 x2,7_11 - p2 + p7 <= 399
 R293: - 50 x2,7_50 - p2 + p7 >= 0
 R294: 388 x2,7_50 - p2 + p7 <= 438
 R295: - 53 x2,7_53 - p2 + p7 >= 0
 R296: 388 x2,7_53 - p2 + p7 <= 441
 R297: - 59 x2,7_59 - p2 + p7 >= 0
 R298: 388 x2,7_59 - p2 + p7 <= 447
 R299: - 65 x2,7_65 - p2 + p7 >= 0
 R300: 388 x2,7_65 - p2 + p7 <= 453
 R301: - 69 x2,7_69 - p2 + p7 >= 0
 R302: 388 x2,7_69 - p2 + p7 <= 457
 R303: - 81 x2,7_81 - p2 + p7 >= 0
 R304: 388 x2,7_81 - p2 + p7 <= 469
 R305: p3 - p4 <= -1
 R306: - 11 x3,4_11 - p3 + p4 >= 0
 R307: 388 x3,4_11 - p3 + p4 <= 399
 R308: - 50 x3,4_50 - p3 + p4 >= 0
 R309: 388 x3,4_50 - p3 + p4 <= 438
 R310: - 53 x3,4_53 - p3 + p4 >= 0
 R311: 388 x3,4_53 - p3 + p4 <= 441
 R312: - 59 x3,4_59 - p3 + p4 >= 0
 R313: 388 x3,4_59 - p3 + p4 <= 447
 R314: - 65 x3,4_65 - p3 + p4 >= 0
 R315: 388 x3,4_65 - p3 + p4 <= 453
 R316: - 69 x3,4_69 - p3 + p4 >= 0
 R317: 388 x3,4_69 - p3 + p4 <= 457
 R318: - 81 x3,4_81 - p3 + p4 >= 0
 R319: 388 x3,4_81 - p3 + p4 <= 469
 R320: p3 - p5 <= -1
 R321: - 11 x3,5_11 - p3 + p5 >= 0
 R322: 388 x3,5_11 - p3 + p5 <= 399
 R323: - 50 x3,5_50 - p3 + p5 >= 0
 R324: 388 x3,5_50 - p3 + p5 <= 438
 R325: - 53 x3,5_53 - p3 + p5 >= 0
 R326: 388 x3,5_53 - p3 + p5 <= 441
 R327: - 59 x3,5_59 - p3 + p5 >= 0
 R328: 388 x3,5_59 - p3 + p5 <= 447
 R329: - 65 x3,5_65 - p3 + p5 >= 0
 R330: 388 x3,5_65 - p3 + p5 <= 453
 R331: - 69 x3,5_69 - p3 + p5 >= 0
 R332: 388 x3,5_69 - p3 + p5 <= 457
 R333: - 81 x3,5_81 - p3 + p5 >= 0
 R334: 388 x3,5_81 - p3 + p5 <= 469
 R335: p3 - p6 <= -1
 R336: - 11 x3,6_11 - p3 + p6 >= 0
 R337: 388 x3,6_11 - p3 + p6 <= 399
 R338: - 50 x3,6_50 - p3 + p6 >= 0
 R339: 388 x3,6_50 - p3 + p6 <= 438
 R340: - 53 x3,6_53 - p3 + p6 >= 0
 R341: 388 x3,6_53 - p3 + p6 <= 441
 R342: - 59 x3,6_59 - p3 + p6 >= 0
 R343: 388 x3,6_59 - p3 + p6 <= 447
 R344: - 65 x3,6_65 - p3 + p6 >= 0
 R345: 388 x3,6_65 - p3 + p6 <= 453
 R346: - 69 x3,6_69 - p3 + p6 >= 0
 R347: 388 x3,6_69 - p3 + p6 <= 457
 R348: - 81 x3,6_81 - p3 + p6 >= 0
 R349: 388 x3,6_81 - p3 + p6 <= 469
 R350: p3 - p7 <= -1
 R351: - 11 x3,7_11 - p3 + p7 >= 0
 R352: 388 x3,7_11 - p3 + p7 <= 399
 R353: - 50 x3,7_50 - p3 + p7 >= 0
 R354: 388 x3,7_50 - p3 + p7 <= 438
 R355: - 53 x3,7_53 - p3 + p7 >= 0
 R356: 388 x3,7_53 - p3 + p7 <= 441
 R357: - 59 x3,7_59 - p3 + p7 >= 0
 R358: 388 x3,7_59 - p3 + p7 <= 447
 R359: - 65 x3,7_65 - p3 + p7 >= 0
 R360: 388 x3,7_65 - p3 + p7 <= 453
 R361: - 69 x3,7_69 - p3 + p7 >= 0
 R362: 388 x3,7_69 - p3 + p7 <= 457
 R363: - 81 x3,7_81 - p3 + p7 >= 0
 R364: 388 x3,7_81 - p3 + p7 <= 469
 R365: p4 - p5 <= -1
 R366: - 11 x4,5_11 - p4 + p5 >= 0
 R367: 388 x4,5_11 - p4 + p5 <= 399
 R368: - 50 x4,5_50 - p4 + p5 >= 0
 R369: 388 x4,5_50 - p4 + p5 <= 438
 R370: - 53 x4,5_53 - p4 + p5 >= 0
 R371: 388 x4,5_53 - p4 + p5 <= 441
 R372: - 59 x4,5_59 - p4 + p5 >= 0
 R373: 388 x4,5_59 - p4 + p5 <= 447
 R374: - 65 x4,5_65 - p4 + p5 >= 0
 R375: 388 x4,5_65 - p4 + p5 <= 453
 R376: - 69 x4,5_69 - p4 + p5 >= 0
 R377: 388 x4,5_69 - p4 + p5 <= 457
 R378: - 81 x4,5_81 - p4 + p5 >= 0
 R379: 388 x4,5_81 - p4 + p5 <= 469
 R380: p4 - p6 <= -1
 R381: - 11 x4,6_11 - p4 + p6 >= 0
 R382: 388 x4,6_11 - p4 + p6 <= 399
 R383: - 50 x4,6_50 - p4 + p6 >= 0
 R384: 388 x4,6_50 - p4 + p6 <= 438
 R385: - 53 x4,6_53 - p4 + p6 >= 0
 R386: 388 x4,6_53 - p4 + p6 <= 441
 R387: - 59 x4,6_59 - p4 + p6 >= 0
 R388: 388 x4,6_59 - p4 + p6 <= 447
 R389: - 65 x4,6_65 - p4 + p6 >= 0
 R390: 388 x4,6_65 - p4 + p6 <= 453
 R391: - 69 x4,6_69 - p4 + p6 >= 0
 R392: 388 x4,6_69 - p4 + p6 <= 457
 R393: - 81 x4,6_81 - p4 + p6 >= 0
 R394: 388 x4,6_81 - p4 + p6 <= 469
 R395: p4 - p7 <= -1
 R396: - 11 x4,7_11 - p4 + p7 >= 0
 R397: 388 x4,7_11 - p4 + p7 <= 399
 R398: - 50 x4,7_50 - p4 + p7 >= 0
 R399: 388 x4,7_50 - p4 + p7 <= 438
 R400: - 53 x4,7_53 - p4 + p7 >= 0
 R401: 388 x4,7_53 - p4 + p7 <= 441
 R402: - 59 x4,7_59 - p4 + p7 >= 0
 R403: 388 x4,7_59 - p4 + p7 <= 447
 R404: - 65 x4,7_65 - p4 + p7 >= 0
 R405: 388 x4,7_65 - p4 + p7 <= 453
 R406: - 69 x4,7_69 - p4 + p7 >= 0
 R407: 388 x4,7_69 - p4 + p7 <= 457
 R408: - 81 x4,7_81 - p4 + p7 >= 0
 R409: 388 x4,7_81 - p4 + p7 <= 469
 R410: p5 - p6 <= -1
 R411: - 11 x5,6_11 - p5 + p6 >= 0
 R412: 388 x5,6_11 - p5 + p6 <= 399
 R413: - 50 x5,6_50 - p5 + p6 >= 0
 R414: 388 x5,6_50 - p5 + p6 <= 438
 R415: - 53 x5,6_53 - p5 + p6 >= 0
 R416: 388 x5,6_53 - p5 + p6 <= 441
 R417: - 59 x5,6_59 - p5 + p6 >= 0
 R418: 388 x5,6_59 - p5 + p6 <= 447
 R419: - 65 x5,6_65 - p5 + p6 >= 0
 R420: 388 x5,6_65 - p5 + p6 <= 453
 R421: - 69 x5,6_69 - p5 + p6 >= 0
 R422: 388 x5,6_69 - p5 + p6 <= 457
 R423: - 81 x5,6_81 - p5 + p6 >= 0
 R424: 388 x5,6_81 - p5 + p6 <= 469
 R425: p5 - p7 <= -1
 R426: - 11 x5,7_11 - p5 + p7 >= 0
 R427: 388 x5,7_11 - p5 + p7 <= 399
 R428: - 50 x5,7_50 - p5 + p7 >= 0
 R429: 388 x5,7_50 - p5 + p7 <= 438
 R430: - 53 x5,7_53 - p5 + p7 >= 0
 R431: 388 x5,7_53 - p5 + p7 <= 441
 R432: - 59 x5,7_59 - p5 + p7 >= 0
 R433: 388 x5,7_59 - p5 + p7 <= 447
 R434: - 65 x5,7_65 - p5 + p7 >= 0
 R435: 388 x5,7_65 - p5 + p7 <= 453
 R436: - 69 x5,7_69 - p5 + p7 >= 0
 R437: 388 x5,7_69 - p5 + p7 <= 457
 R438: - 81 x5,7_81 - p5 + p7 >= 0
 R439: 388 x5,7_81 - p5 + p7 <= 469
 R440: p6 - p7 <= -1
 R441: - 11 x6,7_11 - p6 + p7 >= 0
 R442: 388 x6,7_11 - p6 + p7 <= 399
 R443: - 50 x6,7_50 - p6 + p7 >= 0
 R444: 388 x6,7_50 - p6 + p7 <= 438
 R445: - 53 x6,7_53 - p6 + p7 >= 0
 R446: 388 x6,7_53 - p6 + p7 <= 441
 R447: - 59 x6,7_59 - p6 + p7 >= 0
 R448: 388 x6,7_59 - p6 + p7 <= 447
 R449: - 65 x6,7_65 - p6 + p7 >= 0
 R450: 388 x6,7_65 - p6 + p7 <= 453
 R451: - 69 x6,7_69 - p6 + p7 >= 0
 R452: 388 x6,7_69 - p6 + p7 <= 457
 R453: - 81 x6,7_81 - p6 + p7 >= 0
 R454: 388 x6,7_81 - p6 + p7 <= 469
 R455: z0 - z1 >= 0
 R456: z1 - z2 >= 0
 R457: z2 - z3 >= 0
 R458: z3 - z4 >= 0
 R459: z4 - z5 >= 0
 R460: z5 - z6 >= 0
 R461: z6 - z7 >= 0
Bounds
Binaries
 x0,1_11 x0,1_50 x0,1_53 x0,1_59 x0,1_65 x0,1_69 x0,1_81 x0,2_11 x0,2_50
 x0,2_53 x0,2_59 x0,2_65 x0,2_69 x0,2_81 x0,3_11 x0,3_50 x0,3_53 x0,3_59
 x0,3_65 x0,3_69 x0,3_81 x0,4_11 x0,4_50 x0,4_53 x0,4_59 x0,4_65 x0,4_69
 x0,4_81 x0,5_11 x0,5_50 x0,5_53 x0,5_59 x0,5_65 x0,5_69 x0,5_81 x0,6_11
 x0,6_50 x0,6_53 x0,6_59 x0,6_65 x0,6_69 x0,6_81 x0,7_11 x0,7_50 x0,7_53
 x0,7_59 x0,7_65 x0,7_69 x0,7_81 x1,2_11 x1,2_50 x1,2_53 x1,2_59 x1,2_65
 x1,2_69 x1,2_81 x1,3_11 x1,3_50 x1,3_53 x1,3_59 x1,3_65 x1,3_69 x1,3_81
 x1,4_11 x1,4_50 x1,4_53 x1,4_59 x1,4_65 x1,4_69 x1,4_81 x1,5_11 x1,5_50
 x1,5_53 x1,5_59 x1,5_65 x1,5_69 x1,5_81 x1,6_11 x1,6_50 x1,6_53 x1,6_59
 x1,6_65 x1,6_69 x1,6_81 x1,7_11 x1,7_50 x1,7_53 x1,7_59 x1,7_65 x1,7_69
 x1,7_81 x2,3_11 x2,3_50 x2,3_53 x2,3_59 x2,3_65 x2,3_69 x2,3_81 x2,4_11
 x2,4_50 x2,4_53 x2,4_59 x2,4_65 x2,4_69 x2,4_81 x2,5_11 x2,5_50 x2,5_53
 x2,5_59 x2,5_65 x2,5_69 x2,5_81 x2,6_11 x2,6_50 x2,6_53 x2,6_59 x2,6_65
 x2,6_69 x2,6_81 x2,7_11 x2,7_50 x2,7_53 x2,7_59 x2,7_65 x2,7_69 x2,7_81
 x3,4_11 x3,4_50 x3,4_53 x3,4_59 x3,4_65 x3,4_69 x3,4_81 x3,5_11 x3,5_50
 x3,5_53 x3,5_59 x3,5_65 x3,5_69 x3,5_81 x3,6_11 x3,6_50 x3,6_53 x3,6_59
 x3,6_65 x3,6_69 x3,6_81 x3,7_11 x3,7_50 x3,7_53 x3,7_59 x3,7_65 x3,7_69
 x3,7_81 x4,5_11 x4,5_50 x4,5_53 x4,5_59 x4,5_65 x4,5_69 x4,5_81 x4,6_11
 x4,6_50 x4,6_53 x4,6_59 x4,6_65 x4,6_69 x4,6_81 x4,7_11 x4,7_50 x4,7_53
 x4,7_59 x4,7_65 x4,7_69 x4,7_81 x5,6_11 x5,6_50 x5,6_53 x5,6_59 x5,6_65
 x5,6_69 x5,6_81 x5,7_11 x5,7_50 x5,7_53 x5,7_59 x5,7_65 x5,7_69 x5,7_81
 x6,7_11 x6,7_50 x6,7_53 x6,7_59 x6,7_65 x6,7_69 x6,7_81 z0 z1 z2 z3 z4 z5
 z6 z7
Generals
 p0 p1 p2 p3 p4 p5 p6 p7
End
