logs/drand/ip/drand-07-110-1.sol
# Objective value = 7
x0,1_11 1
x0,1_50 0
x0,1_53 0
x0,1_59 0
x0,1_65 0
x0,1_69 0
x0,1_81 0
x0,2_11 0
x0,2_50 0
x0,2_53 0
x0,2_59 0
x0,2_65 0
x0,2_69 0
x0,2_81 0
x0,3_11 0
x0,3_50 0
x0,3_53 0
x0,3_59 0
x0,3_65 0
x0,3_69 0
x0,3_81 0
x0,4_11 0
x0,4_50 0
x0,4_53 0
x0,4_59 0
x0,4_65 0
x0,4_69 0
x0,4_81 0
x0,5_11 0
x0,5_50 0
x0,5_53 0
x0,5_59 0
x0,5_65 0
x0,5_69 0
x0,5_81 0
x0,6_11 0
x0,6_50 0
x0,6_53 0
x0,6_59 0
x0,6_65 0
x0,6_69 0
x0,6_81 0
x0,7_11 0
x0,7_50 0
x0,7_53 0
x0,7_59 0
x0,7_65 0
x0,7_69 0
x0,7_81 0
x1,2_11 0
x1,2_50 0
x1,2_53 0
x1,2_59 0
x1,2_65 0
x1,2_69 0
x1,2_81 0
x1,3_11 0
x1,3_50 1
x1,3_53 0
x1,3_59 0
x1,3_65 0
x1,3_69 0
x1,3_81 0
x1,4_11 0
x1,4_50 0
x1,4_53 0
x1,4_59 1
x1,4_65 0
x1,4_69 0
x1,4_81 0
x1,5_11 0
x1,5_50 0
x1,5_53 0
x1,5_59 0
x1,5_65 0
x1,5_69 1
x1,5_81 0
x1,6_11 0
x1,6_50 0
x1,6_53 0
x1,6_59 0
x1,6_65 0
x1,6_69 0
x1,6_81 1
x1,7_11 0
x1,7_50 0
x1,7_53 0
x1,7_59 0
x1,7_65 0
x1,7_69 0
x1,7_81 0
x2,3_11 0
x2,3_50 0
x2,3_53 0
x2,3_59 0
x2,3_65 0
x2,3_69 0
x2,3_81 0
x2,4_11 0
x2,4_50 0
x2,4_53 0
x2,4_59 0
x2,4_65 0
x2,4_69 0
x2,4_81 0
x2,5_11 0
x2,5_50 0
x2,5_53 1
x2,5_59 0
x2,5_65 0
x2,5_69 0
x2,5_81 0
x2,6_11 0
x2,6_50 0
x2,6_53 0
x2,6_59 0
x2,6_65 1
x2,6_69 0
x2,6_81 0
x2,7_11 0
x2,7_50 0
x2,7_53 0
x2,7_59 0
x2,7_65 0
x2,7_69 0
x2,7_81 0
x3,4_11 0
x3,4_50 0
x3,4_53 0
x3,4_59 0
x3,4_65 0
x3,4_69 0
x3,4_81 0
x3,5_11 0
x3,5_50 0
x3,5_53 0
x3,5_59 0
x3,5_65 0
x3,5_69 0
x3,5_81 0
x3,6_11 0
x3,6_50 0
x3,6_53 0
x3,6_59 0
x3,6_65 0
x3,6_69 0
x3,6_81 0
x3,7_11 0
x3,7_50 0
x3,7_53 0
x3,7_59 0
x3,7_65 0
x3,7_69 0
x3,7_81 0
x4,5_11 0
x4,5_50 0
x4,5_53 0
x4,5_59 0
x4,5_65 0
x4,5_69 0
x4,5_81 0
x4,6_11 0
x4,6_50 0
x4,6_53 0
x4,6_59 0
x4,6_65 0
x4,6_69 0
x4,6_81 0
x4,7_11 0
x4,7_50 0
x4,7_53 0
x4,7_59 0
x4,7_65 0
x4,7_69 0
x4,7_81 0
x5,6_11 0
x5,6_50 0
x5,6_53 0
x5,6_59 0
x5,6_65 0
x5,6_69 0
x5,6_81 0
x5,7_11 0
x5,7_50 0
x5,7_53 0
x5,7_59 0
x5,7_65 0
x5,7_69 0
x5,7_81 0
x6,7_11 0
x6,7_50 0
x6,7_53 0
x6,7_59 0
x6,7_65 0
x6,7_69 0
x6,7_81 0
z0 1
z1 1
z2 1
z3 1
z4 1
z5 1
z6 1
z7 0
p0 1
p1 12
p2 28
p3 62
p4 71
p5 81
p6 93
p7 94
